146	32	4	79	
10	10	10	10

0	0	0	0	0	0	3	1	2	4
1	0	1	1	1	6	2	6	3
2	1	7	0	6	1	2	11	5
3	3	4	0	6	6	1	5
4	0	3	8	3	8	4	16	14	10	9
5	2	0	4	7	4	2	17	7
6	5	6	4	0	3	2	11	9
7	7	0	3	4	8	1	8
8	3	8	0	4	5	2	14	9
9	5	5	5	0	3	4	30	29	18	12
10	0	4	6	2	6	3	18	17	12
11	4	3	0	2	3	2	18	14
12	0	4	6	2	8	1	13
13	0	3	4	3	9	2	28	15
14	0	3	2	7	8	1	15
15	2	0	1	6	2	5	27	26	22	20	19
16	3	3	0	5	4	2	26	18
17	0	6	3	4	2	3	28	25	20
18	0	5	3	5	3	2	22	19
19	5	1	0	3	7	2	25	21
20	5	4	5	0	1	2	24	21
21	0	3	3	8	8	1	23
22	0	3	5	2	2	1	24
23	1	3	3	0	6	1	31
24	0	5	2	3	2	1	31
25	5	0	4	4	10	1	31
26	7	4	7	0	6	1	31
27	0	4	4	1	6	1	31
28	6	0	2	6	3	1	31
29	3	0	8	3	4	1	31
30	5	0	3	3	2	1	31
31	0	0	0	0	0	0
